
Welcome to IBM(R) ILOG(R) CPLEX(R) Interactive Optimizer 22.1.1.0
  with Simplex, Mixed Integer & Barrier Optimizers
5725-A06 5725-A29 5724-Y48 5724-Y49 5724-Y54 5724-Y55 5655-Y21
Copyright IBM Corp. 1988, 2022.  All Rights Reserved.

Type 'help' for a list of available commands.
Type 'help' followed by a command name for more
information on commands.

CPLEX> Selected objective sense:  MINIMIZE
Selected objective  name:  00000000
Selected RHS        name:  RHS1
Selected bound      name:  BOUND
Problem 'ee.mps' read.
Read time = 0.03 sec. (3.14 ticks)
CPLEX> New value for time limit in seconds: 7200
CPLEX> New value for parallel optimization mode: -1
CPLEX> New value for default parallel thread count: 40
CPLEX> New value for mixed integer optimality gap tolerance: 1e-13
CPLEX> Version identifier: 22.1.1.0 | 2022-11-28 | 9160aff4d
CPXPARAM_Threads                                 40
CPXPARAM_Parallel                                -1
CPXPARAM_TimeLimit                               7200
CPXPARAM_MIP_Tolerances_MIPGap                   1e-13
Found incumbent of value 0.000000 after 0.00 sec. (0.31 ticks)
Tried aggregator 3 times.
MIP Presolve eliminated 755 rows and 3849 columns.
MIP Presolve modified 5559 coefficients.
Aggregator did 629 substitutions.
Reduced MIP has 3133 rows, 6748 columns, and 24525 nonzeros.
Reduced MIP has 6748 binaries, 0 generals, 0 SOSs, and 0 indicators.
Presolve time = 0.08 sec. (74.64 ticks)
Probing fixed 52 vars, tightened 0 bounds.
Probing time = 0.06 sec. (24.37 ticks)
Tried aggregator 2 times.
Detecting symmetries...
MIP Presolve eliminated 11 rows and 62 columns.
Aggregator did 10 substitutions.
Reduced MIP has 3112 rows, 6673 columns, and 24244 nonzeros.
Reduced MIP has 6673 binaries, 0 generals, 0 SOSs, and 0 indicators.
Presolve time = 0.04 sec. (42.96 ticks)
Probing time = 0.03 sec. (8.31 ticks)
Clique table members: 15943.
MIP emphasis: balance optimality and feasibility.
MIP search method: dynamic search.
Parallel mode: opportunistic, using up to 40 threads.
Root relaxation solution time = 0.09 sec. (77.61 ticks)

        Nodes                                         Cuts/
   Node  Left     Objective  IInf  Best Integer    Best Bound    ItCnt     Gap

*     0+    0                            0.0000  -1.31000e+13              --- 
*     0+    0                      -4.40000e+12  -1.31000e+13           197.73%
*     0+    0                      -5.39000e+12  -1.31000e+13           143.04%
*     0+    0                      -5.50000e+12  -1.31000e+13           138.18%
*     0+    0                      -6.49000e+12  -1.31000e+13           101.85%
      0     0  -1.30900e+13   109  -6.49000e+12  -1.30900e+13     1922  101.69%
*     0+    0                      -9.79000e+12  -1.30900e+13            33.71%
*     0+    0                      -1.30900e+13  -1.30900e+13             0.00%
      0     0  -1.30900e+13    63  -1.30900e+13     Cuts: 119     2370    0.00%
      0     0  -1.30900e+13   156  -1.30900e+13      Cuts: 63     2695    0.00%
*     0+    0                      -1.30900e+13  -1.30900e+13             0.00%
      0     0  -1.30900e+13   103  -1.30900e+13      Cuts: 44     2757    0.00%
      0     0  -1.30900e+13    93  -1.30900e+13      Cuts: 63     2935    0.00%
      0     0  -1.30900e+13   123  -1.30900e+13      Cuts: 46     3056    0.00%
*     0+    0                      -1.30900e+13  -1.30900e+13             0.00%
*     0+    0                      -1.30900e+13  -1.30900e+13             0.00%

Repeating presolve.
Tried aggregator 2 times.
MIP Presolve eliminated 1372 rows and 3192 columns.
MIP Presolve added 16 rows and 0 columns.
MIP Presolve modified 37 coefficients.
Aggregator did 390 substitutions.
Reduced MIP has 1366 rows, 3040 columns, and 10730 nonzeros.
Reduced MIP has 3040 binaries, 0 generals, 0 SOSs, and 0 indicators.
Presolve time = 0.04 sec. (35.92 ticks)
Probing time = 0.03 sec. (8.41 ticks)
Tried aggregator 1 time.
Detecting symmetries...
MIP Presolve eliminated 13 rows and 8 columns.
Reduced MIP has 1353 rows, 3031 columns, and 10697 nonzeros.
Reduced MIP has 3031 binaries, 0 generals, 0 SOSs, and 0 indicators.
Presolve time = 0.02 sec. (15.30 ticks)
Represolve time = 0.11 sec. (78.72 ticks)
Probing time = 0.02 sec. (4.85 ticks)
Clique table members: 7176.
MIP emphasis: balance optimality and feasibility.
MIP search method: dynamic search.
Parallel mode: opportunistic, using up to 40 threads.
Root relaxation solution time = 0.06 sec. (41.95 ticks)

        Nodes                                         Cuts/
   Node  Left     Objective  IInf  Best Integer    Best Bound    ItCnt     Gap

*     0+    0                      -1.30900e+13  -1.30900e+13             0.00%
      0     0  -1.30900e+13   102  -1.30900e+13  -1.30900e+13     4822    0.00%
      0     0  -1.30900e+13   157  -1.30900e+13      Cuts: 38     5923    0.00%
      0     0  -1.30900e+13   179  -1.30900e+13      Cuts: 92     6099    0.00%

Repeating presolve.
Tried aggregator 2 times.
MIP Presolve eliminated 825 rows and 1851 columns.
MIP Presolve modified 3 coefficients.
Aggregator did 85 substitutions.
Reduced MIP has 443 rows, 1077 columns, and 3603 nonzeros.
Reduced MIP has 1077 binaries, 0 generals, 0 SOSs, and 0 indicators.
Presolve time = 0.01 sec. (8.17 ticks)
Probing fixed 2 vars, tightened 0 bounds.
Probing time = 0.00 sec. (1.91 ticks)
Tried aggregator 1 time.
MIP Presolve eliminated 20 rows and 26 columns.
MIP Presolve added 8 rows and 0 columns.
MIP Presolve modified 12 coefficients.
Reduced MIP has 431 rows, 1051 columns, and 3501 nonzeros.
Reduced MIP has 1051 binaries, 0 generals, 0 SOSs, and 0 indicators.
Presolve time = 0.00 sec. (3.11 ticks)
Probing time = 0.00 sec. (1.60 ticks)
Tried aggregator 2 times.
Detecting symmetries...
MIP Presolve eliminated 7 rows and 11 columns.
Aggregator did 3 substitutions.
Reduced MIP has 421 rows, 1035 columns, and 3462 nonzeros.
Reduced MIP has 1035 binaries, 0 generals, 0 SOSs, and 0 indicators.
Presolve time = 0.01 sec. (4.70 ticks)
Represolve time = 0.04 sec. (36.27 ticks)
Probing time = 0.00 sec. (1.56 ticks)
Clique table members: 2478.
MIP emphasis: balance optimality and feasibility.
MIP search method: dynamic search.
Parallel mode: opportunistic, using up to 40 threads.
Root relaxation solution time = 0.02 sec. (16.18 ticks)

        Nodes                                         Cuts/
   Node  Left     Objective  IInf  Best Integer    Best Bound    ItCnt     Gap

*     0+    0                      -1.30900e+13  -1.30900e+13             0.00%
      0     0  -1.30900e+13   163  -1.30900e+13  -1.30900e+13     7192    0.00%
      0     0  -1.30900e+13    53  -1.30900e+13     Cuts: 140     7415    0.00%
      0     0  -1.30900e+13    88  -1.30900e+13      Cuts: 29     7474    0.00%
      0     0  -1.30900e+13   141  -1.30900e+13      Cuts: 46     7654    0.00%
      0     0        cutoff        -1.30900e+13                   7654    0.00%
Elapsed time = 2.27 sec. (1960.87 ticks, tree = 0.01 MB, solutions = 10)

GUB cover cuts applied:  9
Clique cuts applied:  54
Cover cuts applied:  46
Flow cuts applied:  7
Mixed integer rounding cuts applied:  23
Zero-half cuts applied:  23
Lift and project cuts applied:  16
Gomory fractional cuts applied:  6

Root node processing (before b&c):
  Real time             =    2.28 sec. (1961.90 ticks)
Parallel b&c, 40 threads:
  Real time             =    0.00 sec. (0.00 ticks)
  Sync time (average)   =    0.00 sec.
  Wait time (average)   =    0.00 sec.
                          ------------
Total (root+branch&cut) =    2.28 sec. (1961.90 ticks)

Solution pool: 10 solutions saved.

MIP - Integer optimal solution:  Objective = -1.3089999889e+13
Solution time =    2.31 sec.  Iterations = 7654  Nodes = 0
Deterministic time = 1961.93 ticks  (849.96 ticks/sec)

CPLEX> Solution 'p11' written to file 'ee.sol'.
CPLEX> 